#SOLVERNAME# PAJ_Gurobi_MOSEK_msd_scale_subponly_noinit
#SOLVER# Pajarito.PajaritoSolver(3, 3600.0, 1.0e-5, true, Gurobi.GurobiSolver(nothing, Any[(:OutputFlag, 1), (:Threads, 8), (:IntFeasTol, 1.0e-9), (:FeasibilityTol, 1.0e-6), (:MIPGap, 1.0e-5)]), Pajarito.UnsetSolver(), 0, false, true, Mosek.MosekSolver(Any[(:LOG, 0), (:NUM_THREADS, 8), (:MSK_DPAR_INTPNT_CO_TOL_REL_GAP, 1.0e-10), (:MSK_DPAR_INTPNT_CO_TOL_PFEAS, 1.0e-10), (:MSK_DPAR_INTPNT_CO_TOL_DFEAS, 1.0e-10), (:MSK_DPAR_INTPNT_CO_TOL_NEAR_REL, 1000.0)]), true, true, false, false, true, false, false, true, false, false, false, false, false, false, true, 10.0, true, false, false, false, 1.0e-12, 1.0e-6, false, "")
#INSTANCE# sssd-weak-25-4.cbf.gz
#TIMELIMIT# 3600.0

Problem dimensions:
       variables |     165
     constraints |     230
   nonzeros in A |     480

Cones summary:
Cone             | Count   | Min dim.  | Max dim. 
    Rotated S.O. |      12 |         3 |         3

Variable types:
      continuous |      53
         integer |     112

Transforming data...               0.00s

Creating conic subproblem...       0.01s

Building MIP model...              0.00s

Solving conic relaxation...        0.01s
 - Relaxation status    =        Optimal
 - Relaxation bound     =  116121.348468
Academic license - for non-commercial use only
Optimize a model with 242 rows, 188 columns and 600 nonzeros
Variable types: 76 continuous, 112 integer (0 binary)
Coefficient statistics:
  Matrix range     [5e-01, 5e+02]
  Objective range  [5e+01, 1e+05]
  Bounds range     [0e+00, 0e+00]
  RHS range        [1e+00, 1e+00]
Presolve removed 149 rows and 24 columns
Presolve time: 0.00s
Presolved: 93 rows, 164 columns, 404 nonzeros
Variable types: 52 continuous, 112 integer (112 binary)

Root relaxation: objective 1.161213e+05, 129 iterations, 0.00 seconds

    Nodes    |    Current Node    |     Objective Bounds      |     Work
 Expl Unexpl |  Obj  Depth IntInf | Incumbent    BestBd   Gap | It/Node Time

     0     0 116121.349    0   12          - 116121.349      -     -    0s
H    0     0                    320158.18008 116121.349  63.7%     -    0s
     0     0 116492.274    0   19 320158.180 116492.274  63.6%     -    0s
     0     0 116835.506    0   22 320158.180 116835.506  63.5%     -    0s
     0     0 121352.155    0   22 320158.180 121352.155  62.1%     -    0s
     0     0 126006.217    0   22 320158.180 126006.217  60.6%     -    0s
     0     0 126301.605    0   24 320158.180 126301.605  60.6%     -    0s
     0     0 126692.665    0   28 320158.180 126692.665  60.4%     -    0s
     0     0 126734.418    0   33 320158.180 126734.418  60.4%     -    0s
     0     0 126738.269    0   29 320158.180 126738.269  60.4%     -    0s
     0     0 126915.906    0   33 320158.180 126915.906  60.4%     -    0s
     0     0 126919.088    0   37 320158.180 126919.088  60.4%     -    0s
     0     0 126943.231    0   34 320158.180 126943.231  60.3%     -    0s
     0     2 126943.231    0   34 320158.180 126943.231  60.3%     -    0s
H   34    21                    318384.16948 187126.851  41.2%  29.1    0s
*  493   355              41    317516.50174 309791.092  2.43%   6.3    0s
*  586   328              53    312411.17010 309795.987  0.84%   6.0    0s
H  587   327                    312387.14245 309795.987  0.83%   6.0    0s
*  677   350              33    312190.18197 309796.484  0.77%   5.8    0s
H 1002   525                    312026.58973 309830.432  0.70%   5.1    0s
* 1592   848              39    311989.38616 311305.748  0.22%   4.6    1s
* 1597   477              43    311753.75350 311319.278  0.14%   4.6    1s
* 2471   410              23    311752.52272 311649.517  0.03%   4.5    1s
* 2576   401              21    311746.00824 311654.667  0.03%   4.4    1s
* 3854   200              20    311741.43858 311672.370  0.02%   4.3    1s
* 4028   211              30    311737.25697 311679.528  0.02%   4.3    1s
H 4184   141                    311725.15401 311689.437  0.01%   4.4    1s
* 4336     0              21    311720.56745 311698.972  0.01%   4.3    1s

Cutting planes:
  Gomory: 8
  Cover: 3
  MIR: 5
  Flow cover: 12
  GUB cover: 2
  Lazy constraints: 219

Explored 4515 nodes (19569 simplex iterations) in 1.17 seconds
Thread count was 8 (of 16 available processors)

Solution count 10: 311721 311725 311737 ... 312190

Optimal solution found (tolerance 1.00e-05)
Best objective 3.117205674456e+05, best bound 3.117205674456e+05, gap 0.0000%

Starting MIP-solver-driven algorithm
Mosek problem is Mosek.MSK_PRO_STA_UNKNOWN, solution is Mosek.MSK_SOL_STA_UNKNOWN, response is Mosek.MSK_RES_OK

WARNING: Conic solver failure: returned status Unknown

MIP-solver-driven algorithm summary:
 - Status               =        Optimal
 - Best feasible        =  +3.117211e+05
 - Best bound           =  +3.117206e+05
 - Relative opt. gap    =      1.814e-06
 - Total time (s)       =       1.19e+00

Timers (s):
 - Setup                =   1.41e-02
 -- Transform data      =   1.53e-04
 -- Create conic data   =   1.35e-02
 -- Create MIP data     =   4.42e-04
 - Algorithm            =   1.18e+00
 -- Solve relaxation    =   7.02e-03
 -- Get relaxation cuts =   7.82e-05
 -- MIP solver driving  =   1.17e+00
 -- Solve subproblems   =   1.56e-01
 -- Get subproblem cuts =   4.56e-03
 -- Get separation cuts =   0.00e+00

Counters:
 - Lazy callbacks       =    49
 -- Integer repeats     =     3
 -- Conic subproblems   =    47
 --- Infeasible         =     0
 --- Optimal            =    46
 --- Suboptimal         =     0
 --- UserLimit          =     0
 --- ConicFailure       =     0
 --- Other status       =     1
 -- Feasible solutions  =    46
 --- From subproblems   =    46
 --- In lazy callback   =     0
 - Heuristic callbacks  =  3131
 -- Solutions passed    =    11

Solution returned by conic solver

Rounds of full separation/subproblem cuts, and count of cuts added:
Cone             | Subp.  | Sep.   | Total  | Relax. | Viol. 
    Second order |    588 |      0 |    221 |     24 |    221

3 numerically unstable disaggregated SOC cuts

Distance to feasibility (negative indicates strict feasibility):
Cone             | Variable  | Constraint
          Linear |  0.00e+00 |  4.63e-11
    Rotated S.O. |        NA |  1.14e-10

Distance to integrality of integer/binary variables:
         integer |  1.39e-17

#STATUS# Optimal
#OBJVAL# 311721.1329787782
#OBJBOUND# 311720.5674456231
#NODECOUNT# 4515
#TIMESOLVER# 1.1946830749511719
#TIMEALL# 1.2383849620819092
#SOLUTION# [-0.0,1.0,-0.0,0.0,-0.0,1.0,-0.0,0.0,0.0,-0.0,-0.0,1.0,-0.0,-0.0,0.0,1.0,1.0,-0.0,0.0,-0.0,-0.0,-0.0,-0.0,1.0,1.0,-0.0,0.0,-0.0,0.0,-0.0,1.0,-0.0,-0.0,1.0,-0.0,-0.0,0.0,-0.0,1.0,-0.0,-0.0,0.0,-0.0,1.0,-0.0,-0.0,1.0,-0.0,-0.0,1.0,0.0,-0.0,-0.0,1.0,-0.0,-0.0,-0.0,-0.0,-0.0,1.0,-0.0,-0.0,1.0,-0.0,-0.0,-0.0,1.0,-0.0,-0.0,1.0,-0.0,-0.0,-0.0,-0.0,-0.0,1.0,-0.0,0.0,-0.0,1.0,-0.0,-0.0,1.0,-0.0,-0.0,1.0,-0.0,0.0,1.0,-0.0,0.0,-0.0,1.0,-0.0,0.0,-0.0,1.0,-0.0,1.3877787807814457e-17,-0.0,0.0,-0.0,1.0,-0.0,0.0,1.0,-0.0,0.0,1.0,0.0,-0.0,1.0,0.6323567136713638,0.8111534500047011,0.8388411406346905,0.8633212431447331,0.0,0.0,0.38738880333927284,0.0,0.0,0.44786566832562796,0.0,0.0,0.45617923288268714,0.0,0.0,0.46332388824597864,0.0,0.3161783568356819,0.3161783568356819,0.12248395516604549,0.40557672500235054,0.40557672500235054,0.18164389083953655,0.41942057031734525,0.41942057031734525,0.19133095387600169,0.43166062157236657,0.43166062157236657,0.19999867744937724,1.632356713671364,1.632356713671364,1.632356713671364,1.811153450004701,1.811153450004701,1.811153450004701,1.8388411406346905,1.8388411406346905,1.8388411406346905,1.8633212431447332,1.8633212431447332,1.8633212431447332,0.6323567136720365,0.6323567136720366,0.6323567136713638,0.8111534500510382,0.8111534500510381,0.8111534500047011,0.8388411406520646,0.8388411406520647,0.8388411406346905,0.8633212431442832,0.8633212431442835,0.8633212431447331]
